% File represents an instance of a Composite Structure problem to be solved by a CP framework
% Created on 2025-03-26 10:41:42.107
T = 56;
n = 25;
m = 40;
edges = [(1, 2),
(6, 7),
(11, 12),
(17, 16),
(22, 21),
(3, 2),
(7, 8),
(12, 13),
(17, 18),
(22, 23),
(3, 4),
(9, 8),
(14, 13),
(19, 18),
(24, 23),
(4, 5),
(9, 10),
(14, 15),
(19, 20),
(24, 25),
(6, 1),
(11, 6),
(11, 16),
(16, 21),
(7, 2),
(12, 7),
(12, 17),
(17, 22),
(3, 8),
(13, 8),
(18, 13),
(18, 23),
(9, 4),
(14, 9),
(19, 14),
(19, 24),
(10, 5),
(15, 10),
(20, 15),
(20, 25)];
counts = [|10, 20, 10, 6,
|10, 20, 10, 4,
|10, 22, 10, 4,
|8, 20, 8, 4,
|8, 18, 8, 4,
|10, 24, 10, 6,
|10, 22, 10, 6,
|10, 20, 10, 4,
|10, 22, 10, 4,
|10, 18, 10, 4,
|10, 26, 10, 10,
|10, 26, 10, 8,
|10, 24, 10, 4,
|12, 24, 12, 4,
|10, 22, 10, 4,
|10, 24, 10, 6,
|10, 24, 10, 8,
|10, 24, 10, 6,
|12, 24, 12, 8,
|10, 24, 10, 8,
|10, 22, 10, 6,
|10, 24, 10, 6,
|10, 24, 10, 4,
|10, 24, 10, 8,
|8, 22, 8, 8|];
